NAME: random-40-4096
TYPE: TSP
COMMENT: size=40 seed=4096
DIMENSION: 82
EDGE_WEIGHT_TYPE: EUC_2D
NODE_COORD_SECTION
+0 472 818
-0 472 818
+1 526 400
-1 0 628
+2 654 348
-2 450 671
+3 491 805
-3 706 945
+4 789 927
-4 850 121
+5 718 213
-5 500 355
+6 905 342
-6 232 22
+7 495 976
-7 296 9
+8 627 114
-8 702 200
+9 607 898
-9 411 904
+10 715 984
-10 608 261
+11 364 361
-11 99 655
+12 925 83
-12 163 156
+13 437 102
-13 391 786
+14 80 444
-14 452 232
+15 177 234
-15 946 322
+16 369 7
-16 562 131
+17 234 174
-17 258 445
+18 262 174
-18 697 550
+19 510 821
-19 807 586
+20 710 113
-20 976 203
+21 900 754
-21 375 547
+22 125 175
-22 163 470
+23 741 678
-23 805 481
+24 247 790
-24 407 277
+25 696 460
-25 744 178
+26 189 741
-26 950 767
+27 941 257
-27 753 121
+28 183 544
-28 287 752
+29 494 767
-29 159 54
+30 276 244
-30 260 456
+31 750 99
-31 721 526
+32 796 252
-32 881 550
+33 967 662
-33 372 380
+34 958 564
-34 381 935
+35 841 65
-35 629 390
+36 667 762
-36 180 673
+37 456 576
-37 12 816
+38 268 378
-38 955 89
+39 951 411
-39 618 113
+40 103 279
-40 730 616
PRECEDENCE_SECTION
+0 -0
+1 -1
+2 -2
+3 -3
+4 -4
+5 -5
+6 -6
+7 -7
+8 -8
+9 -9
+10 -10
+11 -11
+12 -12
+13 -13
+14 -14
+15 -15
+16 -16
+17 -17
+18 -18
+19 -19
+20 -20
+21 -21
+22 -22
+23 -23
+24 -24
+25 -25
+26 -26
+27 -27
+28 -28
+29 -29
+30 -30
+31 -31
+32 -32
+33 -33
+34 -34
+35 -35
+36 -36
+37 -37
+38 -38
+39 -39
+40 -40
EOF
